NAME : lc107.828937.tour
COMMENT : Cost = 0_828937
COMMENT : Found by LKH [Keld Helsgaun] Fri Sep 15 17:42:00 2017
TYPE : TOUR
DIMENSION : 116
TOUR_SECTION
1
58
56
55
54
57
59
61
60
109
99
97
96
95
93
94
98
101
107
100
111
44
43
42
41
45
47
46
49
52
51
53
50
48
106
116
21
25
26
28
30
31
29
27
24
103
23
22
114
6
4
8
9
11
12
10
7
5
3
2
76
110
91
88
87
84
83
85
86
89
90
92
108
33
34
32
36
38
39
40
102
37
35
113
82
105
79
77
72
71
74
78
80
81
112
68
66
64
63
75
73
62
104
65
69
67
70
115
14
18
19
20
16
17
15
13
-1
EOF
